c CNF-Signature NAND_13
c 
c $p 13 1
c $m (1,2,3,4,5,6,7,8,9,10,11,12,13,14)
c $i 1
c $i 2
c $i 3
c $i 4
c $i 5
c $i 6
c $i 7
c $i 8
c $i 9
c $i 10
c $i 11
c $i 12
c $i 13
c $o 14
p cnf 14 14
1 14 0
2 14 0
3 14 0
4 14 0
5 14 0
6 14 0
7 14 0
8 14 0
9 14 0
10 14 0
11 14 0
12 14 0
13 14 0
-1 -2 -3 -4 -5 -6 -7 -8 -9 -10 -11 -12 -13 -14 0
